sat
(:max-memory         18.52
 :memory             18.43
 :nlsat-arith-var    3
 :nlsat-atoms        6
 :nlsat-bool-var     1
 :nlsat-clauses      5
 :nlsat-decisions    1
 :nlsat-propagations 2
 :nlsat-stages       4
 :num-allocs         57949
 :rlimit-count       2257
 :time               0.00
 :total-time         0.01)
